phonons at Gamma
&inputph
 prefix='silicon',
 epsil=.false.,
 ldisp=.false.,
 fildyn='dyn',
 tr2_ph=1.0d-13,
/
0 0 0
 
